============================[ Problem Statistics ]=============================|                                                                             ||  Number of variables:          4242                                         ||  Number of clauses:            9750                                         ||  Parse time:                   0.15 s                                       ||                                                                             |============================[ Search Statistics ]==============================| Conflicts |          ORIGINAL         |          LEARNT          | Progress ||           |    Vars  Clauses Literals |    Limit  Clauses Lit/Cl |          |==============================================================================================================================================================restarts              : 1conflicts             : 92             (346 /sec)decisions             : 178            (0.00 % random) (669 /sec)propagations          : 8244           (30992 /sec)conflict literals     : 4786           (95.99 % deleted)CPU time              : 0.266 sSATISFIABLE